sifdecoder -A pc64.lnx.gfo -st   CVXQP1

 Problem name: CVXQP1

 Double precision version will be formed

 The objective function uses 10000 nonlinear groups
 
 There are 5000 linear equality constraints
 
 There are 10000 variables bounded from below and above 
 
 
 File successfully decoded
 CUTEST: tools (double precision version) compiled successfully
 CUTEst: ipopt (double precision version) compiled successfully

******************************************************************************
This program contains Ipopt, a library for large-scale nonlinear optimization.
 Ipopt is released as open source code under the Eclipse Public License (EPL).
         For more information visit http://projects.coin-or.org/Ipopt
******************************************************************************

This is Ipopt version trunk, running with linear solver ma57.

Number of nonzeros in equality constraint Jacobian...:    14998
Number of nonzeros in inequality constraint Jacobian.:        0
Number of nonzeros in Lagrangian Hessian.............:    39984

Reallocating memory for MA57: lfact (15980260)
Reallocating memory for MA57: lfact (19584355)
Total number of variables............................:    10000
                     variables with only lower bounds:        0
                variables with lower and upper bounds:    10000
                     variables with only upper bounds:        0
Total number of equality constraints.................:     5000
Total number of inequality constraints...............:        0
        inequality constraints with only lower bounds:        0
   inequality constraints with lower and upper bounds:        0
        inequality constraints with only upper bounds:        0

iter    objective    inf_pr   inf_du lg(mu)  ||d||  lg(rg) alpha_du alpha_pr  ls
   0  5.6255625e+07 3.00e+00 1.00e+02  -1.0 0.00e+00    -  0.00e+00 0.00e+00   0
   1  5.5005168e+07 2.64e+00 8.81e+01  -1.0 3.31e+00    -  1.53e-01 1.20e-01f  1
   2  5.5107586e+07 2.49e+00 8.31e+01  -1.0 2.07e+00    -  2.70e-01 5.70e-02h  1
   3  5.6122850e+07 2.27e+00 7.59e+01  -1.0 1.79e+00    -  2.99e-01 8.68e-02h  1
   4  5.9841486e+07 1.90e+00 6.33e+01  -1.0 1.35e+00    -  2.95e-01 1.66e-01h  1
   5  6.4464848e+07 1.60e+00 5.34e+01  -1.0 1.18e+00    -  2.27e-01 1.55e-01h  1
   6  6.9552481e+07 1.35e+00 4.78e+01  -1.0 1.11e+00    -  3.18e-01 1.57e-01h  1
   7  7.5193491e+07 1.11e+00 6.20e+01  -1.0 1.03e+00    -  5.08e-01 1.78e-01h  1
   8  8.3501951e+07 7.97e-01 5.75e+01  -1.0 9.66e-01    -  6.83e-01 2.82e-01h  1
   9  9.2138029e+07 5.06e-01 4.50e+01  -1.0 7.35e-01    -  1.00e+00 3.66e-01h  1
iter    objective    inf_pr   inf_du lg(mu)  ||d||  lg(rg) alpha_du alpha_pr  ls
  10  1.0260529e+08 1.83e-01 1.65e+01  -1.0 4.87e-01    -  1.00e+00 6.38e-01h  1
  11  1.0889922e+08 1.78e-15 3.79e-11  -1.0 1.82e-01    -  1.00e+00 1.00e+00h  1
  12  1.0874532e+08 1.78e-15 8.62e-01  -2.5 6.05e-02    -  9.46e-01 8.39e-01f  1
  13  1.0871071e+08 1.78e-15 5.53e-11  -2.5 3.40e-02    -  1.00e+00 1.00e+00f  1
  14  1.0870514e+08 1.78e-15 1.57e-04  -3.8 1.63e-02    -  1.00e+00 1.00e+00f  1
Reallocating memory for MA57: lfact (21305881)
  15  1.0870510e+08 1.78e-15 6.41e-11  -3.8 6.54e-03    -  1.00e+00 1.00e+00f  1
  16  1.0870480e+08 1.78e-15 4.05e-04  -5.7 3.57e-03    -  1.00e+00 9.97e-01f  1
Reallocating memory for MA57: lfact (24916179)
  17  1.0870480e+08 1.78e-15 3.24e-11  -5.7 1.61e-03    -  1.00e+00 1.00e+00f  1
  18  1.0870480e+08 1.78e-15 3.27e-11  -5.7 5.86e-04    -  1.00e+00 1.00e+00f  1
  19  1.0870480e+08 1.78e-15 2.28e-11  -8.6 1.82e-04    -  1.00e+00 1.00e+00f  1
iter    objective    inf_pr   inf_du lg(mu)  ||d||  lg(rg) alpha_du alpha_pr  ls
  20  1.0870480e+08 1.78e-15 3.78e-11  -8.6 1.57e-05    -  1.00e+00 1.00e+00h  1

Number of Iterations....: 20

                                   (scaled)                 (unscaled)
Objective...............:   2.0705676085660531e+05    1.0870479944971779e+08
Dual infeasibility......:   3.7804867497195531e-11    1.9847555436027654e-08
Constraint violation....:   1.7763568394002505e-15    1.7763568394002505e-15
Complementarity.........:   6.7331198649051436e-09    3.5348879290752004e-06
Overall NLP error.......:   6.7331198649051436e-09    3.5348879290752004e-06


Number of objective function evaluations             = 21
Number of objective gradient evaluations             = 21
Number of equality constraint evaluations            = 21
Number of inequality constraint evaluations          = 0
Number of equality constraint Jacobian evaluations   = 21
Number of inequality constraint Jacobian evaluations = 0
Number of Lagrangian Hessian evaluations             = 20
Total CPU secs in IPOPT (w/o function evaluations)   =     96.949
Total CPU secs in NLP function evaluations           =      0.375

EXIT: Optimal Solution Found.

************************ CUTEst statistics ************************


 Package used            :  IPOPT
 Problem                 :  CVXQP1    
 # variables             =           10000
 # constraints           =            5000
 # objective functions   =        0.4300000E+02
 # objective gradients   =        0.2200000E+02
 # objective Hessians    =        0.2100000E+02
 # Hessian-vector prdct  =        0.0000000E+00
 # constraints functions =        0.4400000E+02
 # constraints gradients =        0.2300000E+02
 # constraints Hessians  =        0.2100000E+02
 Exit code               =               0
 Final f                 =        1.0870479944971779D+08
 Bounds feasibility      =        9.9877116160884682D-09
 Set up time             =            0.87 seconds
 Solve time              =          187.14 seconds


******************************************************************

